p cnf 144 1752
1 2 3 4 5 6 7 8 9 10 11 12 0
13 14 15 16 17 18 19 20 21 22 23 24 0
25 26 27 28 29 30 31 32 33 34 35 36 0
37 38 39 40 41 42 43 44 45 46 47 48 0
49 50 51 52 53 54 55 56 57 58 59 60 0
61 62 63 64 65 66 67 68 69 70 71 72 0
73 74 75 76 77 78 79 80 81 82 83 84 0
85 86 87 88 89 90 91 92 93 94 95 96 0
97 98 99 100 101 102 103 104 105 106 107 108 0
109 110 111 112 113 114 115 116 117 118 119 120 0
121 122 123 124 125 126 127 128 129 130 131 132 0
133 134 135 136 137 138 139 140 141 142 143 144 0
-1 0
-14 0
-27 0
-40 0
-53 0
-66 0
-79 0
-92 0
-105 0
-118 0
-131 0
-144 0
-1 -1 1 0
-1 -2 2 0
-1 -3 3 0
-1 -4 4 0
-1 -5 5 0
-1 -6 6 0
-1 -7 7 0
-1 -8 8 0
-1 -9 9 0
-1 -10 10 0
-1 -11 11 0
-1 -12 12 0
-2 -13 1 0
-2 -14 2 0
-2 -15 3 0
-2 -16 4 0
-2 -17 5 0
-2 -18 6 0
-2 -19 7 0
-2 -20 8 0
-2 -21 9 0
-2 -22 10 0
-2 -23 11 0
-2 -24 12 0
-3 -25 1 0
-3 -26 2 0
-3 -27 3 0
-3 -28 4 0
-3 -29 5 0
-3 -30 6 0
-3 -31 7 0
-3 -32 8 0
-3 -33 9 0
-3 -34 10 0
-3 -35 11 0
-3 -36 12 0
-4 -37 1 0
-4 -38 2 0
-4 -39 3 0
-4 -40 4 0
-4 -41 5 0
-4 -42 6 0
-4 -43 7 0
-4 -44 8 0
-4 -45 9 0
-4 -46 10 0
-4 -47 11 0
-4 -48 12 0
-5 -49 1 0
-5 -50 2 0
-5 -51 3 0
-5 -52 4 0
-5 -53 5 0
-5 -54 6 0
-5 -55 7 0
-5 -56 8 0
-5 -57 9 0
-5 -58 10 0
-5 -59 11 0
-5 -60 12 0
-6 -61 1 0
-6 -62 2 0
-6 -63 3 0
-6 -64 4 0
-6 -65 5 0
-6 -66 6 0
-6 -67 7 0
-6 -68 8 0
-6 -69 9 0
-6 -70 10 0
-6 -71 11 0
-6 -72 12 0
-7 -73 1 0
-7 -74 2 0
-7 -75 3 0
-7 -76 4 0
-7 -77 5 0
-7 -78 6 0
-7 -79 7 0
-7 -80 8 0
-7 -81 9 0
-7 -82 10 0
-7 -83 11 0
-7 -84 12 0
-8 -85 1 0
-8 -86 2 0
-8 -87 3 0
-8 -88 4 0
-8 -89 5 0
-8 -90 6 0
-8 -91 7 0
-8 -92 8 0
-8 -93 9 0
-8 -94 10 0
-8 -95 11 0
-8 -96 12 0
-9 -97 1 0
-9 -98 2 0
-9 -99 3 0
-9 -100 4 0
-9 -101 5 0
-9 -102 6 0
-9 -103 7 0
-9 -104 8 0
-9 -105 9 0
-9 -106 10 0
-9 -107 11 0
-9 -108 12 0
-10 -109 1 0
-10 -110 2 0
-10 -111 3 0
-10 -112 4 0
-10 -113 5 0
-10 -114 6 0
-10 -115 7 0
-10 -116 8 0
-10 -117 9 0
-10 -118 10 0
-10 -119 11 0
-10 -120 12 0
-11 -121 1 0
-11 -122 2 0
-11 -123 3 0
-11 -124 4 0
-11 -125 5 0
-11 -126 6 0
-11 -127 7 0
-11 -128 8 0
-11 -129 9 0
-11 -130 10 0
-11 -131 11 0
-11 -132 12 0
-12 -133 1 0
-12 -134 2 0
-12 -135 3 0
-12 -136 4 0
-12 -137 5 0
-12 -138 6 0
-12 -139 7 0
-12 -140 8 0
-12 -141 9 0
-12 -142 10 0
-12 -143 11 0
-12 -144 12 0
-13 -1 13 0
-13 -2 14 0
-13 -3 15 0
-13 -4 16 0
-13 -5 17 0
-13 -6 18 0
-13 -7 19 0
-13 -8 20 0
-13 -9 21 0
-13 -10 22 0
-13 -11 23 0
-13 -12 24 0
-14 -13 13 0
-14 -14 14 0
-14 -15 15 0
-14 -16 16 0
-14 -17 17 0
-14 -18 18 0
-14 -19 19 0
-14 -20 20 0
-14 -21 21 0
-14 -22 22 0
-14 -23 23 0
-14 -24 24 0
-15 -25 13 0
-15 -26 14 0
-15 -27 15 0
-15 -28 16 0
-15 -29 17 0
-15 -30 18 0
-15 -31 19 0
-15 -32 20 0
-15 -33 21 0
-15 -34 22 0
-15 -35 23 0
-15 -36 24 0
-16 -37 13 0
-16 -38 14 0
-16 -39 15 0
-16 -40 16 0
-16 -41 17 0
-16 -42 18 0
-16 -43 19 0
-16 -44 20 0
-16 -45 21 0
-16 -46 22 0
-16 -47 23 0
-16 -48 24 0
-17 -49 13 0
-17 -50 14 0
-17 -51 15 0
-17 -52 16 0
-17 -53 17 0
-17 -54 18 0
-17 -55 19 0
-17 -56 20 0
-17 -57 21 0
-17 -58 22 0
-17 -59 23 0
-17 -60 24 0
-18 -61 13 0
-18 -62 14 0
-18 -63 15 0
-18 -64 16 0
-18 -65 17 0
-18 -66 18 0
-18 -67 19 0
-18 -68 20 0
-18 -69 21 0
-18 -70 22 0
-18 -71 23 0
-18 -72 24 0
-19 -73 13 0
-19 -74 14 0
-19 -75 15 0
-19 -76 16 0
-19 -77 17 0
-19 -78 18 0
-19 -79 19 0
-19 -80 20 0
-19 -81 21 0
-19 -82 22 0
-19 -83 23 0
-19 -84 24 0
-20 -85 13 0
-20 -86 14 0
-20 -87 15 0
-20 -88 16 0
-20 -89 17 0
-20 -90 18 0
-20 -91 19 0
-20 -92 20 0
-20 -93 21 0
-20 -94 22 0
-20 -95 23 0
-20 -96 24 0
-21 -97 13 0
-21 -98 14 0
-21 -99 15 0
-21 -100 16 0
-21 -101 17 0
-21 -102 18 0
-21 -103 19 0
-21 -104 20 0
-21 -105 21 0
-21 -106 22 0
-21 -107 23 0
-21 -108 24 0
-22 -109 13 0
-22 -110 14 0
-22 -111 15 0
-22 -112 16 0
-22 -113 17 0
-22 -114 18 0
-22 -115 19 0
-22 -116 20 0
-22 -117 21 0
-22 -118 22 0
-22 -119 23 0
-22 -120 24 0
-23 -121 13 0
-23 -122 14 0
-23 -123 15 0
-23 -124 16 0
-23 -125 17 0
-23 -126 18 0
-23 -127 19 0
-23 -128 20 0
-23 -129 21 0
-23 -130 22 0
-23 -131 23 0
-23 -132 24 0
-24 -133 13 0
-24 -134 14 0
-24 -135 15 0
-24 -136 16 0
-24 -137 17 0
-24 -138 18 0
-24 -139 19 0
-24 -140 20 0
-24 -141 21 0
-24 -142 22 0
-24 -143 23 0
-24 -144 24 0
-25 -1 25 0
-25 -2 26 0
-25 -3 27 0
-25 -4 28 0
-25 -5 29 0
-25 -6 30 0
-25 -7 31 0
-25 -8 32 0
-25 -9 33 0
-25 -10 34 0
-25 -11 35 0
-25 -12 36 0
-26 -13 25 0
-26 -14 26 0
-26 -15 27 0
-26 -16 28 0
-26 -17 29 0
-26 -18 30 0
-26 -19 31 0
-26 -20 32 0
-26 -21 33 0
-26 -22 34 0
-26 -23 35 0
-26 -24 36 0
-27 -25 25 0
-27 -26 26 0
-27 -27 27 0
-27 -28 28 0
-27 -29 29 0
-27 -30 30 0
-27 -31 31 0
-27 -32 32 0
-27 -33 33 0
-27 -34 34 0
-27 -35 35 0
-27 -36 36 0
-28 -37 25 0
-28 -38 26 0
-28 -39 27 0
-28 -40 28 0
-28 -41 29 0
-28 -42 30 0
-28 -43 31 0
-28 -44 32 0
-28 -45 33 0
-28 -46 34 0
-28 -47 35 0
-28 -48 36 0
-29 -49 25 0
-29 -50 26 0
-29 -51 27 0
-29 -52 28 0
-29 -53 29 0
-29 -54 30 0
-29 -55 31 0
-29 -56 32 0
-29 -57 33 0
-29 -58 34 0
-29 -59 35 0
-29 -60 36 0
-30 -61 25 0
-30 -62 26 0
-30 -63 27 0
-30 -64 28 0
-30 -65 29 0
-30 -66 30 0
-30 -67 31 0
-30 -68 32 0
-30 -69 33 0
-30 -70 34 0
-30 -71 35 0
-30 -72 36 0
-31 -73 25 0
-31 -74 26 0
-31 -75 27 0
-31 -76 28 0
-31 -77 29 0
-31 -78 30 0
-31 -79 31 0
-31 -80 32 0
-31 -81 33 0
-31 -82 34 0
-31 -83 35 0
-31 -84 36 0
-32 -85 25 0
-32 -86 26 0
-32 -87 27 0
-32 -88 28 0
-32 -89 29 0
-32 -90 30 0
-32 -91 31 0
-32 -92 32 0
-32 -93 33 0
-32 -94 34 0
-32 -95 35 0
-32 -96 36 0
-33 -97 25 0
-33 -98 26 0
-33 -99 27 0
-33 -100 28 0
-33 -101 29 0
-33 -102 30 0
-33 -103 31 0
-33 -104 32 0
-33 -105 33 0
-33 -106 34 0
-33 -107 35 0
-33 -108 36 0
-34 -109 25 0
-34 -110 26 0
-34 -111 27 0
-34 -112 28 0
-34 -113 29 0
-34 -114 30 0
-34 -115 31 0
-34 -116 32 0
-34 -117 33 0
-34 -118 34 0
-34 -119 35 0
-34 -120 36 0
-35 -121 25 0
-35 -122 26 0
-35 -123 27 0
-35 -124 28 0
-35 -125 29 0
-35 -126 30 0
-35 -127 31 0
-35 -128 32 0
-35 -129 33 0
-35 -130 34 0
-35 -131 35 0
-35 -132 36 0
-36 -133 25 0
-36 -134 26 0
-36 -135 27 0
-36 -136 28 0
-36 -137 29 0
-36 -138 30 0
-36 -139 31 0
-36 -140 32 0
-36 -141 33 0
-36 -142 34 0
-36 -143 35 0
-36 -144 36 0
-37 -1 37 0
-37 -2 38 0
-37 -3 39 0
-37 -4 40 0
-37 -5 41 0
-37 -6 42 0
-37 -7 43 0
-37 -8 44 0
-37 -9 45 0
-37 -10 46 0
-37 -11 47 0
-37 -12 48 0
-38 -13 37 0
-38 -14 38 0
-38 -15 39 0
-38 -16 40 0
-38 -17 41 0
-38 -18 42 0
-38 -19 43 0
-38 -20 44 0
-38 -21 45 0
-38 -22 46 0
-38 -23 47 0
-38 -24 48 0
-39 -25 37 0
-39 -26 38 0
-39 -27 39 0
-39 -28 40 0
-39 -29 41 0
-39 -30 42 0
-39 -31 43 0
-39 -32 44 0
-39 -33 45 0
-39 -34 46 0
-39 -35 47 0
-39 -36 48 0
-40 -37 37 0
-40 -38 38 0
-40 -39 39 0
-40 -40 40 0
-40 -41 41 0
-40 -42 42 0
-40 -43 43 0
-40 -44 44 0
-40 -45 45 0
-40 -46 46 0
-40 -47 47 0
-40 -48 48 0
-41 -49 37 0
-41 -50 38 0
-41 -51 39 0
-41 -52 40 0
-41 -53 41 0
-41 -54 42 0
-41 -55 43 0
-41 -56 44 0
-41 -57 45 0
-41 -58 46 0
-41 -59 47 0
-41 -60 48 0
-42 -61 37 0
-42 -62 38 0
-42 -63 39 0
-42 -64 40 0
-42 -65 41 0
-42 -66 42 0
-42 -67 43 0
-42 -68 44 0
-42 -69 45 0
-42 -70 46 0
-42 -71 47 0
-42 -72 48 0
-43 -73 37 0
-43 -74 38 0
-43 -75 39 0
-43 -76 40 0
-43 -77 41 0
-43 -78 42 0
-43 -79 43 0
-43 -80 44 0
-43 -81 45 0
-43 -82 46 0
-43 -83 47 0
-43 -84 48 0
-44 -85 37 0
-44 -86 38 0
-44 -87 39 0
-44 -88 40 0
-44 -89 41 0
-44 -90 42 0
-44 -91 43 0
-44 -92 44 0
-44 -93 45 0
-44 -94 46 0
-44 -95 47 0
-44 -96 48 0
-45 -97 37 0
-45 -98 38 0
-45 -99 39 0
-45 -100 40 0
-45 -101 41 0
-45 -102 42 0
-45 -103 43 0
-45 -104 44 0
-45 -105 45 0
-45 -106 46 0
-45 -107 47 0
-45 -108 48 0
-46 -109 37 0
-46 -110 38 0
-46 -111 39 0
-46 -112 40 0
-46 -113 41 0
-46 -114 42 0
-46 -115 43 0
-46 -116 44 0
-46 -117 45 0
-46 -118 46 0
-46 -119 47 0
-46 -120 48 0
-47 -121 37 0
-47 -122 38 0
-47 -123 39 0
-47 -124 40 0
-47 -125 41 0
-47 -126 42 0
-47 -127 43 0
-47 -128 44 0
-47 -129 45 0
-47 -130 46 0
-47 -131 47 0
-47 -132 48 0
-48 -133 37 0
-48 -134 38 0
-48 -135 39 0
-48 -136 40 0
-48 -137 41 0
-48 -138 42 0
-48 -139 43 0
-48 -140 44 0
-48 -141 45 0
-48 -142 46 0
-48 -143 47 0
-48 -144 48 0
-49 -1 49 0
-49 -2 50 0
-49 -3 51 0
-49 -4 52 0
-49 -5 53 0
-49 -6 54 0
-49 -7 55 0
-49 -8 56 0
-49 -9 57 0
-49 -10 58 0
-49 -11 59 0
-49 -12 60 0
-50 -13 49 0
-50 -14 50 0
-50 -15 51 0
-50 -16 52 0
-50 -17 53 0
-50 -18 54 0
-50 -19 55 0
-50 -20 56 0
-50 -21 57 0
-50 -22 58 0
-50 -23 59 0
-50 -24 60 0
-51 -25 49 0
-51 -26 50 0
-51 -27 51 0
-51 -28 52 0
-51 -29 53 0
-51 -30 54 0
-51 -31 55 0
-51 -32 56 0
-51 -33 57 0
-51 -34 58 0
-51 -35 59 0
-51 -36 60 0
-52 -37 49 0
-52 -38 50 0
-52 -39 51 0
-52 -40 52 0
-52 -41 53 0
-52 -42 54 0
-52 -43 55 0
-52 -44 56 0
-52 -45 57 0
-52 -46 58 0
-52 -47 59 0
-52 -48 60 0
-53 -49 49 0
-53 -50 50 0
-53 -51 51 0
-53 -52 52 0
-53 -53 53 0
-53 -54 54 0
-53 -55 55 0
-53 -56 56 0
-53 -57 57 0
-53 -58 58 0
-53 -59 59 0
-53 -60 60 0
-54 -61 49 0
-54 -62 50 0
-54 -63 51 0
-54 -64 52 0
-54 -65 53 0
-54 -66 54 0
-54 -67 55 0
-54 -68 56 0
-54 -69 57 0
-54 -70 58 0
-54 -71 59 0
-54 -72 60 0
-55 -73 49 0
-55 -74 50 0
-55 -75 51 0
-55 -76 52 0
-55 -77 53 0
-55 -78 54 0
-55 -79 55 0
-55 -80 56 0
-55 -81 57 0
-55 -82 58 0
-55 -83 59 0
-55 -84 60 0
-56 -85 49 0
-56 -86 50 0
-56 -87 51 0
-56 -88 52 0
-56 -89 53 0
-56 -90 54 0
-56 -91 55 0
-56 -92 56 0
-56 -93 57 0
-56 -94 58 0
-56 -95 59 0
-56 -96 60 0
-57 -97 49 0
-57 -98 50 0
-57 -99 51 0
-57 -100 52 0
-57 -101 53 0
-57 -102 54 0
-57 -103 55 0
-57 -104 56 0
-57 -105 57 0
-57 -106 58 0
-57 -107 59 0
-57 -108 60 0
-58 -109 49 0
-58 -110 50 0
-58 -111 51 0
-58 -112 52 0
-58 -113 53 0
-58 -114 54 0
-58 -115 55 0
-58 -116 56 0
-58 -117 57 0
-58 -118 58 0
-58 -119 59 0
-58 -120 60 0
-59 -121 49 0
-59 -122 50 0
-59 -123 51 0
-59 -124 52 0
-59 -125 53 0
-59 -126 54 0
-59 -127 55 0
-59 -128 56 0
-59 -129 57 0
-59 -130 58 0
-59 -131 59 0
-59 -132 60 0
-60 -133 49 0
-60 -134 50 0
-60 -135 51 0
-60 -136 52 0
-60 -137 53 0
-60 -138 54 0
-60 -139 55 0
-60 -140 56 0
-60 -141 57 0
-60 -142 58 0
-60 -143 59 0
-60 -144 60 0
-61 -1 61 0
-61 -2 62 0
-61 -3 63 0
-61 -4 64 0
-61 -5 65 0
-61 -6 66 0
-61 -7 67 0
-61 -8 68 0
-61 -9 69 0
-61 -10 70 0
-61 -11 71 0
-61 -12 72 0
-62 -13 61 0
-62 -14 62 0
-62 -15 63 0
-62 -16 64 0
-62 -17 65 0
-62 -18 66 0
-62 -19 67 0
-62 -20 68 0
-62 -21 69 0
-62 -22 70 0
-62 -23 71 0
-62 -24 72 0
-63 -25 61 0
-63 -26 62 0
-63 -27 63 0
-63 -28 64 0
-63 -29 65 0
-63 -30 66 0
-63 -31 67 0
-63 -32 68 0
-63 -33 69 0
-63 -34 70 0
-63 -35 71 0
-63 -36 72 0
-64 -37 61 0
-64 -38 62 0
-64 -39 63 0
-64 -40 64 0
-64 -41 65 0
-64 -42 66 0
-64 -43 67 0
-64 -44 68 0
-64 -45 69 0
-64 -46 70 0
-64 -47 71 0
-64 -48 72 0
-65 -49 61 0
-65 -50 62 0
-65 -51 63 0
-65 -52 64 0
-65 -53 65 0
-65 -54 66 0
-65 -55 67 0
-65 -56 68 0
-65 -57 69 0
-65 -58 70 0
-65 -59 71 0
-65 -60 72 0
-66 -61 61 0
-66 -62 62 0
-66 -63 63 0
-66 -64 64 0
-66 -65 65 0
-66 -66 66 0
-66 -67 67 0
-66 -68 68 0
-66 -69 69 0
-66 -70 70 0
-66 -71 71 0
-66 -72 72 0
-67 -73 61 0
-67 -74 62 0
-67 -75 63 0
-67 -76 64 0
-67 -77 65 0
-67 -78 66 0
-67 -79 67 0
-67 -80 68 0
-67 -81 69 0
-67 -82 70 0
-67 -83 71 0
-67 -84 72 0
-68 -85 61 0
-68 -86 62 0
-68 -87 63 0
-68 -88 64 0
-68 -89 65 0
-68 -90 66 0
-68 -91 67 0
-68 -92 68 0
-68 -93 69 0
-68 -94 70 0
-68 -95 71 0
-68 -96 72 0
-69 -97 61 0
-69 -98 62 0
-69 -99 63 0
-69 -100 64 0
-69 -101 65 0
-69 -102 66 0
-69 -103 67 0
-69 -104 68 0
-69 -105 69 0
-69 -106 70 0
-69 -107 71 0
-69 -108 72 0
-70 -109 61 0
-70 -110 62 0
-70 -111 63 0
-70 -112 64 0
-70 -113 65 0
-70 -114 66 0
-70 -115 67 0
-70 -116 68 0
-70 -117 69 0
-70 -118 70 0
-70 -119 71 0
-70 -120 72 0
-71 -121 61 0
-71 -122 62 0
-71 -123 63 0
-71 -124 64 0
-71 -125 65 0
-71 -126 66 0
-71 -127 67 0
-71 -128 68 0
-71 -129 69 0
-71 -130 70 0
-71 -131 71 0
-71 -132 72 0
-72 -133 61 0
-72 -134 62 0
-72 -135 63 0
-72 -136 64 0
-72 -137 65 0
-72 -138 66 0
-72 -139 67 0
-72 -140 68 0
-72 -141 69 0
-72 -142 70 0
-72 -143 71 0
-72 -144 72 0
-73 -1 73 0
-73 -2 74 0
-73 -3 75 0
-73 -4 76 0
-73 -5 77 0
-73 -6 78 0
-73 -7 79 0
-73 -8 80 0
-73 -9 81 0
-73 -10 82 0
-73 -11 83 0
-73 -12 84 0
-74 -13 73 0
-74 -14 74 0
-74 -15 75 0
-74 -16 76 0
-74 -17 77 0
-74 -18 78 0
-74 -19 79 0
-74 -20 80 0
-74 -21 81 0
-74 -22 82 0
-74 -23 83 0
-74 -24 84 0
-75 -25 73 0
-75 -26 74 0
-75 -27 75 0
-75 -28 76 0
-75 -29 77 0
-75 -30 78 0
-75 -31 79 0
-75 -32 80 0
-75 -33 81 0
-75 -34 82 0
-75 -35 83 0
-75 -36 84 0
-76 -37 73 0
-76 -38 74 0
-76 -39 75 0
-76 -40 76 0
-76 -41 77 0
-76 -42 78 0
-76 -43 79 0
-76 -44 80 0
-76 -45 81 0
-76 -46 82 0
-76 -47 83 0
-76 -48 84 0
-77 -49 73 0
-77 -50 74 0
-77 -51 75 0
-77 -52 76 0
-77 -53 77 0
-77 -54 78 0
-77 -55 79 0
-77 -56 80 0
-77 -57 81 0
-77 -58 82 0
-77 -59 83 0
-77 -60 84 0
-78 -61 73 0
-78 -62 74 0
-78 -63 75 0
-78 -64 76 0
-78 -65 77 0
-78 -66 78 0
-78 -67 79 0
-78 -68 80 0
-78 -69 81 0
-78 -70 82 0
-78 -71 83 0
-78 -72 84 0
-79 -73 73 0
-79 -74 74 0
-79 -75 75 0
-79 -76 76 0
-79 -77 77 0
-79 -78 78 0
-79 -79 79 0
-79 -80 80 0
-79 -81 81 0
-79 -82 82 0
-79 -83 83 0
-79 -84 84 0
-80 -85 73 0
-80 -86 74 0
-80 -87 75 0
-80 -88 76 0
-80 -89 77 0
-80 -90 78 0
-80 -91 79 0
-80 -92 80 0
-80 -93 81 0
-80 -94 82 0
-80 -95 83 0
-80 -96 84 0
-81 -97 73 0
-81 -98 74 0
-81 -99 75 0
-81 -100 76 0
-81 -101 77 0
-81 -102 78 0
-81 -103 79 0
-81 -104 80 0
-81 -105 81 0
-81 -106 82 0
-81 -107 83 0
-81 -108 84 0
-82 -109 73 0
-82 -110 74 0
-82 -111 75 0
-82 -112 76 0
-82 -113 77 0
-82 -114 78 0
-82 -115 79 0
-82 -116 80 0
-82 -117 81 0
-82 -118 82 0
-82 -119 83 0
-82 -120 84 0
-83 -121 73 0
-83 -122 74 0
-83 -123 75 0
-83 -124 76 0
-83 -125 77 0
-83 -126 78 0
-83 -127 79 0
-83 -128 80 0
-83 -129 81 0
-83 -130 82 0
-83 -131 83 0
-83 -132 84 0
-84 -133 73 0
-84 -134 74 0
-84 -135 75 0
-84 -136 76 0
-84 -137 77 0
-84 -138 78 0
-84 -139 79 0
-84 -140 80 0
-84 -141 81 0
-84 -142 82 0
-84 -143 83 0
-84 -144 84 0
-85 -1 85 0
-85 -2 86 0
-85 -3 87 0
-85 -4 88 0
-85 -5 89 0
-85 -6 90 0
-85 -7 91 0
-85 -8 92 0
-85 -9 93 0
-85 -10 94 0
-85 -11 95 0
-85 -12 96 0
-86 -13 85 0
-86 -14 86 0
-86 -15 87 0
-86 -16 88 0
-86 -17 89 0
-86 -18 90 0
-86 -19 91 0
-86 -20 92 0
-86 -21 93 0
-86 -22 94 0
-86 -23 95 0
-86 -24 96 0
-87 -25 85 0
-87 -26 86 0
-87 -27 87 0
-87 -28 88 0
-87 -29 89 0
-87 -30 90 0
-87 -31 91 0
-87 -32 92 0
-87 -33 93 0
-87 -34 94 0
-87 -35 95 0
-87 -36 96 0
-88 -37 85 0
-88 -38 86 0
-88 -39 87 0
-88 -40 88 0
-88 -41 89 0
-88 -42 90 0
-88 -43 91 0
-88 -44 92 0
-88 -45 93 0
-88 -46 94 0
-88 -47 95 0
-88 -48 96 0
-89 -49 85 0
-89 -50 86 0
-89 -51 87 0
-89 -52 88 0
-89 -53 89 0
-89 -54 90 0
-89 -55 91 0
-89 -56 92 0
-89 -57 93 0
-89 -58 94 0
-89 -59 95 0
-89 -60 96 0
-90 -61 85 0
-90 -62 86 0
-90 -63 87 0
-90 -64 88 0
-90 -65 89 0
-90 -66 90 0
-90 -67 91 0
-90 -68 92 0
-90 -69 93 0
-90 -70 94 0
-90 -71 95 0
-90 -72 96 0
-91 -73 85 0
-91 -74 86 0
-91 -75 87 0
-91 -76 88 0
-91 -77 89 0
-91 -78 90 0
-91 -79 91 0
-91 -80 92 0
-91 -81 93 0
-91 -82 94 0
-91 -83 95 0
-91 -84 96 0
-92 -85 85 0
-92 -86 86 0
-92 -87 87 0
-92 -88 88 0
-92 -89 89 0
-92 -90 90 0
-92 -91 91 0
-92 -92 92 0
-92 -93 93 0
-92 -94 94 0
-92 -95 95 0
-92 -96 96 0
-93 -97 85 0
-93 -98 86 0
-93 -99 87 0
-93 -100 88 0
-93 -101 89 0
-93 -102 90 0
-93 -103 91 0
-93 -104 92 0
-93 -105 93 0
-93 -106 94 0
-93 -107 95 0
-93 -108 96 0
-94 -109 85 0
-94 -110 86 0
-94 -111 87 0
-94 -112 88 0
-94 -113 89 0
-94 -114 90 0
-94 -115 91 0
-94 -116 92 0
-94 -117 93 0
-94 -118 94 0
-94 -119 95 0
-94 -120 96 0
-95 -121 85 0
-95 -122 86 0
-95 -123 87 0
-95 -124 88 0
-95 -125 89 0
-95 -126 90 0
-95 -127 91 0
-95 -128 92 0
-95 -129 93 0
-95 -130 94 0
-95 -131 95 0
-95 -132 96 0
-96 -133 85 0
-96 -134 86 0
-96 -135 87 0
-96 -136 88 0
-96 -137 89 0
-96 -138 90 0
-96 -139 91 0
-96 -140 92 0
-96 -141 93 0
-96 -142 94 0
-96 -143 95 0
-96 -144 96 0
-97 -1 97 0
-97 -2 98 0
-97 -3 99 0
-97 -4 100 0
-97 -5 101 0
-97 -6 102 0
-97 -7 103 0
-97 -8 104 0
-97 -9 105 0
-97 -10 106 0
-97 -11 107 0
-97 -12 108 0
-98 -13 97 0
-98 -14 98 0
-98 -15 99 0
-98 -16 100 0
-98 -17 101 0
-98 -18 102 0
-98 -19 103 0
-98 -20 104 0
-98 -21 105 0
-98 -22 106 0
-98 -23 107 0
-98 -24 108 0
-99 -25 97 0
-99 -26 98 0
-99 -27 99 0
-99 -28 100 0
-99 -29 101 0
-99 -30 102 0
-99 -31 103 0
-99 -32 104 0
-99 -33 105 0
-99 -34 106 0
-99 -35 107 0
-99 -36 108 0
-100 -37 97 0
-100 -38 98 0
-100 -39 99 0
-100 -40 100 0
-100 -41 101 0
-100 -42 102 0
-100 -43 103 0
-100 -44 104 0
-100 -45 105 0
-100 -46 106 0
-100 -47 107 0
-100 -48 108 0
-101 -49 97 0
-101 -50 98 0
-101 -51 99 0
-101 -52 100 0
-101 -53 101 0
-101 -54 102 0
-101 -55 103 0
-101 -56 104 0
-101 -57 105 0
-101 -58 106 0
-101 -59 107 0
-101 -60 108 0
-102 -61 97 0
-102 -62 98 0
-102 -63 99 0
-102 -64 100 0
-102 -65 101 0
-102 -66 102 0
-102 -67 103 0
-102 -68 104 0
-102 -69 105 0
-102 -70 106 0
-102 -71 107 0
-102 -72 108 0
-103 -73 97 0
-103 -74 98 0
-103 -75 99 0
-103 -76 100 0
-103 -77 101 0
-103 -78 102 0
-103 -79 103 0
-103 -80 104 0
-103 -81 105 0
-103 -82 106 0
-103 -83 107 0
-103 -84 108 0
-104 -85 97 0
-104 -86 98 0
-104 -87 99 0
-104 -88 100 0
-104 -89 101 0
-104 -90 102 0
-104 -91 103 0
-104 -92 104 0
-104 -93 105 0
-104 -94 106 0
-104 -95 107 0
-104 -96 108 0
-105 -97 97 0
-105 -98 98 0
-105 -99 99 0
-105 -100 100 0
-105 -101 101 0
-105 -102 102 0
-105 -103 103 0
-105 -104 104 0
-105 -105 105 0
-105 -106 106 0
-105 -107 107 0
-105 -108 108 0
-106 -109 97 0
-106 -110 98 0
-106 -111 99 0
-106 -112 100 0
-106 -113 101 0
-106 -114 102 0
-106 -115 103 0
-106 -116 104 0
-106 -117 105 0
-106 -118 106 0
-106 -119 107 0
-106 -120 108 0
-107 -121 97 0
-107 -122 98 0
-107 -123 99 0
-107 -124 100 0
-107 -125 101 0
-107 -126 102 0
-107 -127 103 0
-107 -128 104 0
-107 -129 105 0
-107 -130 106 0
-107 -131 107 0
-107 -132 108 0
-108 -133 97 0
-108 -134 98 0
-108 -135 99 0
-108 -136 100 0
-108 -137 101 0
-108 -138 102 0
-108 -139 103 0
-108 -140 104 0
-108 -141 105 0
-108 -142 106 0
-108 -143 107 0
-108 -144 108 0
-109 -1 109 0
-109 -2 110 0
-109 -3 111 0
-109 -4 112 0
-109 -5 113 0
-109 -6 114 0
-109 -7 115 0
-109 -8 116 0
-109 -9 117 0
-109 -10 118 0
-109 -11 119 0
-109 -12 120 0
-110 -13 109 0
-110 -14 110 0
-110 -15 111 0
-110 -16 112 0
-110 -17 113 0
-110 -18 114 0
-110 -19 115 0
-110 -20 116 0
-110 -21 117 0
-110 -22 118 0
-110 -23 119 0
-110 -24 120 0
-111 -25 109 0
-111 -26 110 0
-111 -27 111 0
-111 -28 112 0
-111 -29 113 0
-111 -30 114 0
-111 -31 115 0
-111 -32 116 0
-111 -33 117 0
-111 -34 118 0
-111 -35 119 0
-111 -36 120 0
-112 -37 109 0
-112 -38 110 0
-112 -39 111 0
-112 -40 112 0
-112 -41 113 0
-112 -42 114 0
-112 -43 115 0
-112 -44 116 0
-112 -45 117 0
-112 -46 118 0
-112 -47 119 0
-112 -48 120 0
-113 -49 109 0
-113 -50 110 0
-113 -51 111 0
-113 -52 112 0
-113 -53 113 0
-113 -54 114 0
-113 -55 115 0
-113 -56 116 0
-113 -57 117 0
-113 -58 118 0
-113 -59 119 0
-113 -60 120 0
-114 -61 109 0
-114 -62 110 0
-114 -63 111 0
-114 -64 112 0
-114 -65 113 0
-114 -66 114 0
-114 -67 115 0
-114 -68 116 0
-114 -69 117 0
-114 -70 118 0
-114 -71 119 0
-114 -72 120 0
-115 -73 109 0
-115 -74 110 0
-115 -75 111 0
-115 -76 112 0
-115 -77 113 0
-115 -78 114 0
-115 -79 115 0
-115 -80 116 0
-115 -81 117 0
-115 -82 118 0
-115 -83 119 0
-115 -84 120 0
-116 -85 109 0
-116 -86 110 0
-116 -87 111 0
-116 -88 112 0
-116 -89 113 0
-116 -90 114 0
-116 -91 115 0
-116 -92 116 0
-116 -93 117 0
-116 -94 118 0
-116 -95 119 0
-116 -96 120 0
-117 -97 109 0
-117 -98 110 0
-117 -99 111 0
-117 -100 112 0
-117 -101 113 0
-117 -102 114 0
-117 -103 115 0
-117 -104 116 0
-117 -105 117 0
-117 -106 118 0
-117 -107 119 0
-117 -108 120 0
-118 -109 109 0
-118 -110 110 0
-118 -111 111 0
-118 -112 112 0
-118 -113 113 0
-118 -114 114 0
-118 -115 115 0
-118 -116 116 0
-118 -117 117 0
-118 -118 118 0
-118 -119 119 0
-118 -120 120 0
-119 -121 109 0
-119 -122 110 0
-119 -123 111 0
-119 -124 112 0
-119 -125 113 0
-119 -126 114 0
-119 -127 115 0
-119 -128 116 0
-119 -129 117 0
-119 -130 118 0
-119 -131 119 0
-119 -132 120 0
-120 -133 109 0
-120 -134 110 0
-120 -135 111 0
-120 -136 112 0
-120 -137 113 0
-120 -138 114 0
-120 -139 115 0
-120 -140 116 0
-120 -141 117 0
-120 -142 118 0
-120 -143 119 0
-120 -144 120 0
-121 -1 121 0
-121 -2 122 0
-121 -3 123 0
-121 -4 124 0
-121 -5 125 0
-121 -6 126 0
-121 -7 127 0
-121 -8 128 0
-121 -9 129 0
-121 -10 130 0
-121 -11 131 0
-121 -12 132 0
-122 -13 121 0
-122 -14 122 0
-122 -15 123 0
-122 -16 124 0
-122 -17 125 0
-122 -18 126 0
-122 -19 127 0
-122 -20 128 0
-122 -21 129 0
-122 -22 130 0
-122 -23 131 0
-122 -24 132 0
-123 -25 121 0
-123 -26 122 0
-123 -27 123 0
-123 -28 124 0
-123 -29 125 0
-123 -30 126 0
-123 -31 127 0
-123 -32 128 0
-123 -33 129 0
-123 -34 130 0
-123 -35 131 0
-123 -36 132 0
-124 -37 121 0
-124 -38 122 0
-124 -39 123 0
-124 -40 124 0
-124 -41 125 0
-124 -42 126 0
-124 -43 127 0
-124 -44 128 0
-124 -45 129 0
-124 -46 130 0
-124 -47 131 0
-124 -48 132 0
-125 -49 121 0
-125 -50 122 0
-125 -51 123 0
-125 -52 124 0
-125 -53 125 0
-125 -54 126 0
-125 -55 127 0
-125 -56 128 0
-125 -57 129 0
-125 -58 130 0
-125 -59 131 0
-125 -60 132 0
-126 -61 121 0
-126 -62 122 0
-126 -63 123 0
-126 -64 124 0
-126 -65 125 0
-126 -66 126 0
-126 -67 127 0
-126 -68 128 0
-126 -69 129 0
-126 -70 130 0
-126 -71 131 0
-126 -72 132 0
-127 -73 121 0
-127 -74 122 0
-127 -75 123 0
-127 -76 124 0
-127 -77 125 0
-127 -78 126 0
-127 -79 127 0
-127 -80 128 0
-127 -81 129 0
-127 -82 130 0
-127 -83 131 0
-127 -84 132 0
-128 -85 121 0
-128 -86 122 0
-128 -87 123 0
-128 -88 124 0
-128 -89 125 0
-128 -90 126 0
-128 -91 127 0
-128 -92 128 0
-128 -93 129 0
-128 -94 130 0
-128 -95 131 0
-128 -96 132 0
-129 -97 121 0
-129 -98 122 0
-129 -99 123 0
-129 -100 124 0
-129 -101 125 0
-129 -102 126 0
-129 -103 127 0
-129 -104 128 0
-129 -105 129 0
-129 -106 130 0
-129 -107 131 0
-129 -108 132 0
-130 -109 121 0
-130 -110 122 0
-130 -111 123 0
-130 -112 124 0
-130 -113 125 0
-130 -114 126 0
-130 -115 127 0
-130 -116 128 0
-130 -117 129 0
-130 -118 130 0
-130 -119 131 0
-130 -120 132 0
-131 -121 121 0
-131 -122 122 0
-131 -123 123 0
-131 -124 124 0
-131 -125 125 0
-131 -126 126 0
-131 -127 127 0
-131 -128 128 0
-131 -129 129 0
-131 -130 130 0
-131 -131 131 0
-131 -132 132 0
-132 -133 121 0
-132 -134 122 0
-132 -135 123 0
-132 -136 124 0
-132 -137 125 0
-132 -138 126 0
-132 -139 127 0
-132 -140 128 0
-132 -141 129 0
-132 -142 130 0
-132 -143 131 0
-132 -144 132 0
-133 -1 133 0
-133 -2 134 0
-133 -3 135 0
-133 -4 136 0
-133 -5 137 0
-133 -6 138 0
-133 -7 139 0
-133 -8 140 0
-133 -9 141 0
-133 -10 142 0
-133 -11 143 0
-133 -12 144 0
-134 -13 133 0
-134 -14 134 0
-134 -15 135 0
-134 -16 136 0
-134 -17 137 0
-134 -18 138 0
-134 -19 139 0
-134 -20 140 0
-134 -21 141 0
-134 -22 142 0
-134 -23 143 0
-134 -24 144 0
-135 -25 133 0
-135 -26 134 0
-135 -27 135 0
-135 -28 136 0
-135 -29 137 0
-135 -30 138 0
-135 -31 139 0
-135 -32 140 0
-135 -33 141 0
-135 -34 142 0
-135 -35 143 0
-135 -36 144 0
-136 -37 133 0
-136 -38 134 0
-136 -39 135 0
-136 -40 136 0
-136 -41 137 0
-136 -42 138 0
-136 -43 139 0
-136 -44 140 0
-136 -45 141 0
-136 -46 142 0
-136 -47 143 0
-136 -48 144 0
-137 -49 133 0
-137 -50 134 0
-137 -51 135 0
-137 -52 136 0
-137 -53 137 0
-137 -54 138 0
-137 -55 139 0
-137 -56 140 0
-137 -57 141 0
-137 -58 142 0
-137 -59 143 0
-137 -60 144 0
-138 -61 133 0
-138 -62 134 0
-138 -63 135 0
-138 -64 136 0
-138 -65 137 0
-138 -66 138 0
-138 -67 139 0
-138 -68 140 0
-138 -69 141 0
-138 -70 142 0
-138 -71 143 0
-138 -72 144 0
-139 -73 133 0
-139 -74 134 0
-139 -75 135 0
-139 -76 136 0
-139 -77 137 0
-139 -78 138 0
-139 -79 139 0
-139 -80 140 0
-139 -81 141 0
-139 -82 142 0
-139 -83 143 0
-139 -84 144 0
-140 -85 133 0
-140 -86 134 0
-140 -87 135 0
-140 -88 136 0
-140 -89 137 0
-140 -90 138 0
-140 -91 139 0
-140 -92 140 0
-140 -93 141 0
-140 -94 142 0
-140 -95 143 0
-140 -96 144 0
-141 -97 133 0
-141 -98 134 0
-141 -99 135 0
-141 -100 136 0
-141 -101 137 0
-141 -102 138 0
-141 -103 139 0
-141 -104 140 0
-141 -105 141 0
-141 -106 142 0
-141 -107 143 0
-141 -108 144 0
-142 -109 133 0
-142 -110 134 0
-142 -111 135 0
-142 -112 136 0
-142 -113 137 0
-142 -114 138 0
-142 -115 139 0
-142 -116 140 0
-142 -117 141 0
-142 -118 142 0
-142 -119 143 0
-142 -120 144 0
-143 -121 133 0
-143 -122 134 0
-143 -123 135 0
-143 -124 136 0
-143 -125 137 0
-143 -126 138 0
-143 -127 139 0
-143 -128 140 0
-143 -129 141 0
-143 -130 142 0
-143 -131 143 0
-143 -132 144 0
-144 -133 133 0
-144 -134 134 0
-144 -135 135 0
-144 -136 136 0
-144 -137 137 0
-144 -138 138 0
-144 -139 139 0
-144 -140 140 0
-144 -141 141 0
-144 -142 142 0
-144 -143 143 0
-144 -144 144 0
